benchmarks/bfuzz0/148411160724138260965075148072720814689.smt2
(set-logic QF_FP)
(declare-const x0 (_ FloatingPoint 8 24))
(declare-const x1 (_ FloatingPoint 8 24))
(declare-const x2 (_ FloatingPoint 8 24))
(declare-const x3 (_ FloatingPoint 8 24))
(assert (fp.leq (fp.mul RNE x3 x2) (fp.mul RNE x1 x0)))
(assert (fp.lt (fp.mul RNE x0 x1) (fp.div RNE x1 x3)))
(assert (fp.lt (fp.div RNE x3 x1) (fp.div RNE x1 x3)))
(assert (fp.geq (fp.add RNE x1 x0) (fp.mul RNE x0 x1)))
(check-sat)
