db/data/148411160724138260965075148072720814689.z3.out
sat
-------------------
.671929910
